--- Job tspmod.gms Start 06/26/20 16:40:21 31.1.0 r55b6ce3 WEX-WEI x86 64bit/MS Windows
--- Applying:
    E:\31.1\gmsprmNT.txt
--- GAMS Parameters defined
    Input C:\Users\hasee\Desktop\Summer research\tsp\tspmod.gms
    ScrDir C:\Users\hasee\Desktop\Summer research\tsp\225a\
    SysDir E:\31.1\
    CurDir C:\Users\hasee\Desktop\Summer research\tsp\
    LogOption 3
    Trace C:\Users\hasee\Desktop\Summer research\tsp\_sys_trace_tspmod.trc
    InputDir1 C:\Users\hasee\Desktop\Summer research\tsp\
    TraceOpt 3
    ExecMode 0
    LstTitleLeftAligned 1
    IDCGDXInput _miro_gdxin_.gdx
    IDCGDXOutput _miro_gdxout_.gdx
GAMS 31.1.0   Copyright (C) 1987-2020 GAMS Development. All rights reserved
*** License has expired 17 days ago
Licensee: CS526 Advanced Linear Programming              G200210/0001AS-GEN
          Course License UW-Madison, Prof Ferris, Spring 2020        DCE515
          E:\31.1\gamslice.txt
          Evaluation license: Not for commercial or production use
--- Starting compilation
--- tspmod.gms(5) 2 Mb
--- . set.csv(1) 3 Mb
--- tspmod.gms(10) 3 Mb
--- GDXin=C:\Users\hasee\Desktop\Summer research\tsp\_miro_gdxin_.gdx
--- tspmod.gms(13) 3 Mb
--- Ignoring $include in externalInput section
--- tspmod.gms(78) 3 Mb
--- Starting execution: elapsed 0:00:00.009
--- tspmod.gms(55) 4 Mb
--- Generating MIP model tsp
--- tspmod.gms(56) 4 Mb
---   531 rows  552 columns  2,950 non-zeroes
---   506 discrete-columns
--- Executing CPLEX: elapsed 0:00:00.068

IBM ILOG CPLEX   31.1.0 r55b6ce3 Released May 01, 2020 WEI x86 64bit/MS Window
--- GAMS/Cplex licensed for continuous and discrete problems.
Cplex 12.10.0.0

Reading parameter(s) from "C:\Users\hasee\Desktop\Summer research\tsp\cplex.opt"
>>  lpmethod 4
Finished reading from "C:\Users\hasee\Desktop\Summer research\tsp\cplex.opt"
Reading data...
Starting Cplex...
Space for names approximately 0.04 Mb
Use option 'names no' to turn use of names off
Version identifier: 12.10.0.0 | 2019-11-26 | 843d4de2ae
CPXPARAM_Advance                                 0
CPXPARAM_LPMethod                                4
CPXPARAM_Threads                                 1
CPXPARAM_Parallel                                1
CPXPARAM_MIP_Display                             4
CPXPARAM_Barrier_Limits_Iteration                2000000000
CPXPARAM_TimeLimit                               1000
CPXPARAM_Tune_TimeLimit                          200
CPXPARAM_MIP_Tolerances_AbsMIPGap                0
CPXPARAM_MIP_Tolerances_MIPGap                   0.001
CPXPARAM_WorkDir                                 "C:\Users\hasee\Desktop\Summer research\tsp\225a\"
Tried aggregator 1 time.
MIP Presolve eliminated 23 rows and 24 columns.
Reduced MIP has 508 rows, 528 columns, and 2398 nonzeros.
Reduced MIP has 506 binaries, 0 generals, 0 SOSs, and 0 indicators.
Presolve time = 0.02 sec. (1.56 ticks)
Found incumbent of value 316376.107229 after 0.02 sec. (5.59 ticks)
Probing time = 0.00 sec. (2.24 ticks)
Tried aggregator 1 time.
Detecting symmetries...
Reduced MIP has 508 rows, 528 columns, and 2398 nonzeros.
Reduced MIP has 506 binaries, 0 generals, 0 SOSs, and 0 indicators.
Presolve time = 0.00 sec. (1.89 ticks)
Probing time = 0.00 sec. (2.26 ticks)
Clique table members: 277.
MIP emphasis: balance optimality and feasibility.
MIP search method: dynamic search.
Parallel mode: none, using 1 thread.
Tried aggregator 1 time.
No LP presolve or aggregator reductions.
Presolve time = 0.01 sec. (0.30 ticks)
Initializing dual steep norms . . .

Iteration log . . .
Iteration:     1   Dual objective     =        225163.563170
Iteration:    94   Dual objective     =        307518.633466
Iteration:   159   Dual objective     =        310059.770491
Root relaxation solution time = 0.01 sec. (2.38 ticks)

        Nodes                                         Cuts/
   Node  Left     Objective  IInf  Best Integer    Best Bound    ItCnt     Gap

*     0+    0                       316376.1072        0.0000           100.00%
Found incumbent of value 316376.107229 after 0.05 sec. (15.74 ticks)
      0     0   310064.0739    24   316376.1072   310064.0739      173    2.00%
      0     0   310138.1515    24   316376.1072      Cuts: 56      210    1.97%
      0     0   310168.0951    24   316376.1072      Cuts: 26      239    1.96%
      0     0   310172.7176    24   316376.1072      Cuts: 49      255    1.96%
      0     0   310172.7176    24   316376.1072   MIRcuts: 12      258    1.96%
*     0+    0                       310952.9341   310172.7176             0.25%
Found incumbent of value 310952.934140 after 0.20 sec. (112.26 ticks)
      0     0  -1.00000e+75     0   310952.9341   310172.7176      258    0.25%
Detecting symmetries...
      0     2   310172.7176    39   310952.9341   310173.5581      258    0.25%
Elapsed time = 0.20 sec. (113.01 ticks, tree = 0.01 MB, solutions = 2)
*    41    36      integral     0   310687.9324   310174.9397      500    0.17%
Found incumbent of value 310687.932357 after 0.22 sec. (127.30 ticks)
*    82    66      integral     0   310513.4100   310207.9945      740    0.10%
                                                  Impl Bds: 2                  
Found incumbent of value 310513.410040 after 0.25 sec. (140.69 ticks)

Clique cuts applied:  4
Implied bound cuts applied:  4
Mixed integer rounding cuts applied:  9
Zero-half cuts applied:  1
Multi commodity flow cuts applied:  1
Gomory fractional cuts applied:  6

Root node processing (before b&c):
  Real time             =    0.20 sec. (113.02 ticks)
Sequential b&c:
  Real time             =    0.05 sec. (27.86 ticks)
                          ------------
Total (root+branch&cut) =    0.25 sec. (140.88 ticks)
MIP status(102): integer optimal, tolerance
Cplex Time: 0.25sec (det. 140.89 ticks)
Fixing integer variables, and solving final LP...
Version identifier: 12.10.0.0 | 2019-11-26 | 843d4de2ae
CPXPARAM_Advance                                 2
CPXPARAM_LPMethod                                4
CPXPARAM_Threads                                 1
CPXPARAM_Parallel                                1
CPXPARAM_MIP_Display                             4
CPXPARAM_Barrier_Limits_Iteration                2000000000
CPXPARAM_TimeLimit                               1000
CPXPARAM_Tune_TimeLimit                          200
CPXPARAM_MIP_Tolerances_AbsMIPGap                0
CPXPARAM_MIP_Tolerances_MIPGap                   0.001
CPXPARAM_WorkDir                                 "C:\Users\hasee\Desktop\Summer research\tsp\225a\"
Tried aggregator 1 time.
DUAL formed by presolve
LP Presolve eliminated 69 rows and 530 columns.
Reduced LP has 22 rows, 506 columns, and 968 nonzeros.
Presolve time = 0.00 sec. (0.75 ticks)
Parallel mode: none, using 1 thread for barrier
Number of nonzeros in lower triangle of A*A' = 231
Using Approximate Minimum Degree ordering
Total time for automatic ordering = 0.00 sec. (0.01 ticks)
Summary statistics for Cholesky factor:
  Rows in Factor            = 22
  Integer space required    = 22
  Total non-zeros in factor = 253
  Total FP ops to factor    = 3795
 Itn      Primal Obj        Dual Obj  Prim Inf Upper Inf  Dual Inf Inf Ratio
   0   3.0021741e+05   3.1051341e+05  0.00e+00  0.00e+00  1.30e+02  1.00e+00
   1   3.0771637e+05   3.1051341e+05  2.20e-13  0.00e+00  6.50e+01  1.76e+00
   2   3.0796294e+05   3.1051341e+05  4.58e-10  0.00e+00  3.83e+01  9.00e-01
   3   3.1037529e+05   3.1051341e+05  2.50e-11  0.00e+00  9.78e+00  3.50e+00
   4   3.1050018e+05   3.1051341e+05  2.81e-11  0.00e+00  7.84e-01  4.04e+01
   5   3.1051340e+05   3.1051341e+05  1.93e-12  0.00e+00  4.01e-04  6.97e+04
   6   3.1051341e+05   3.1051341e+05  2.89e-11  0.00e+00  4.01e-08  6.56e+08
   7   3.1051341e+05   3.1051341e+05  5.95e-11  0.00e+00  5.83e-12  3.23e+12
   8   3.1051341e+05   3.1051341e+05  2.70e-14  0.00e+00  1.20e-12  1.40e+16
Barrier time = 0.00 sec. (1.38 ticks)

Primal crossover.
  Primal:  Fixing 1 variable.
        0 PMoves:  Infeasibility  0.00000000e+00  Objective  3.10513410e+05
  Primal:  Pushed 1, exchanged 0.
  Dual:  Fixing 1 variable.
        0 DMoves:  Infeasibility  0.00000000e+00  Objective  3.10513410e+05
  Dual:  Pushed 0, exchanged 1.
Total crossover time = 0.00 sec. (0.33 ticks)

Total time on 1 threads = 0.00 sec. (2.48 ticks)
Fixed MIP status(1): optimal
Cplex Time: 0.00sec (det. 2.48 ticks)

Solution satisfies tolerances.

MIP Solution:       310513.410040    (740 iterations, 83 nodes)
Final Solve:        310513.410040    (0 iterations)

Best possible:      310207.994532
Absolute gap:          305.415508
Relative gap:            0.000984

--- Restarting execution
--- tspmod.gms(56) 2 Mb
--- Reading solution for model tsp
--- tspmod.gms(79) 4 Mb
--- GDX File C:\Users\hasee\Desktop\Summer research\tsp\_miro_gdxout_.gdx
*** Status: Normal completion
--- Job tspmod.gms Stop 06/26/20 16:40:22 elapsed 0:00:00.477
